Using license file /home/benedond/gurobi.lic
Using gurobi.env file
Set parameter Threads to value 1
Academic license - for non-commercial use only
Changed value of parameter TimeLimit to 300.0
   Prev: inf  Min: 0.0  Max: inf  Default: inf
Gurobi Optimizer version 9.0.1 build v9.0.1rc0 (linux64)
Optimize a model with 1005 rows, 904 columns and 4288 nonzeros
Model fingerprint: 0xd1d87df2
Variable types: 40 continuous, 864 integer (864 binary)
Coefficient statistics:
  Matrix range     [2e-01, 4e+02]
  Objective range  [2e-02, 5e-01]
  Bounds range     [1e+00, 1e+00]
  RHS range        [1e+00, 9e+02]
Presolve removed 75 rows and 50 columns
Presolve time: 0.04s
Presolved: 930 rows, 854 columns, 3947 nonzeros
Variable types: 39 continuous, 815 integer (815 binary)

Root relaxation: objective 2.116411e+00, 1156 iterations, 0.03 seconds

    Nodes    |    Current Node    |     Objective Bounds      |     Work
 Expl Unexpl |  Obj  Depth IntInf | Incumbent    BestBd   Gap | It/Node Time

     0     0    2.11641    0   92          -    2.11641      -     -    0s
H    0     0                       4.2251522    2.11641  49.9%     -    0s
     0     0    2.23079    0   84    4.22515    2.23079  47.2%     -    0s
H    0     0                       3.7084457    2.23079  39.8%     -    0s
H    0     0                       3.6642066    2.23079  39.1%     -    0s
     0     0    2.28097    0   76    3.66421    2.28097  37.8%     -    0s
     0     0    2.35639    0  111    3.66421    2.35639  35.7%     -    0s
     0     0    2.39305    0  109    3.66421    2.39305  34.7%     -    0s
     0     0    2.39704    0  108    3.66421    2.39704  34.6%     -    0s
     0     0    2.39806    0   94    3.66421    2.39806  34.6%     -    0s
     0     0    2.39883    0  100    3.66421    2.39883  34.5%     -    0s
     0     0    2.40059    0  103    3.66421    2.40059  34.5%     -    0s
     0     0    2.46368    0  112    3.66421    2.46368  32.8%     -    0s
H    0     0                       3.4841305    2.46368  29.3%     -    0s
H    0     0                       3.2819348    2.46368  24.9%     -    0s
     0     0    2.48742    0  109    3.28193    2.48742  24.2%     -    0s
     0     0    2.49087    0  103    3.28193    2.49087  24.1%     -    0s
     0     0    2.49253    0  114    3.28193    2.49253  24.1%     -    0s
     0     0    2.49258    0  115    3.28193    2.49258  24.1%     -    0s
     0     0    2.52455    0  100    3.28193    2.52455  23.1%     -    0s
     0     0    2.53744    0   91    3.28193    2.53744  22.7%     -    0s
     0     0    2.53828    0  109    3.28193    2.53828  22.7%     -    0s
     0     0    2.53828    0  113    3.28193    2.53828  22.7%     -    0s
     0     0    2.54113    0   80    3.28193    2.54113  22.6%     -    0s
     0     0    2.54172    0   94    3.28193    2.54172  22.6%     -    0s
     0     0    2.54221    0   85    3.28193    2.54221  22.5%     -    0s
     0     0    2.54226    0   85    3.28193    2.54226  22.5%     -    0s
     0     0    2.54833    0   91    3.28193    2.54833  22.4%     -    0s
     0     0    2.55196    0  116    3.28193    2.55196  22.2%     -    0s
     0     0    2.55206    0  115    3.28193    2.55206  22.2%     -    0s
     0     0    2.55957    0  107    3.28193    2.55957  22.0%     -    0s
     0     0    2.56057    0  112    3.28193    2.56057  22.0%     -    0s
     0     0    2.56266    0  132    3.28193    2.56266  21.9%     -    0s
     0     0    2.56280    0  124    3.28193    2.56280  21.9%     -    0s
     0     0    2.57059    0  129    3.28193    2.57059  21.7%     -    0s
     0     0    2.57198    0  147    3.28193    2.57198  21.6%     -    0s
     0     0    2.57211    0  137    3.28193    2.57211  21.6%     -    0s
     0     0    2.57652    0  118    3.28193    2.57652  21.5%     -    0s
     0     0    2.57731    0  128    3.28193    2.57731  21.5%     -    0s
     0     0    2.57800    0  132    3.28193    2.57800  21.4%     -    0s
     0     0    2.57862    0  130    3.28193    2.57862  21.4%     -    0s
     0     0    2.57880    0  134    3.28193    2.57880  21.4%     -    0s
     0     0    2.58080    0  114    3.28193    2.58080  21.4%     -    0s
     0     0    2.58216    0  111    3.28193    2.58216  21.3%     -    0s
     0     0    2.58223    0  124    3.28193    2.58223  21.3%     -    0s
     0     0    2.58276    0  133    3.28193    2.58276  21.3%     -    0s
     0     0    2.58276    0  132    3.28193    2.58276  21.3%     -    0s
H    0     0                       3.2013696    2.58557  19.2%     -    1s
     0     2    2.58557    0  130    3.20137    2.58557  19.2%     -    1s
*  108    86              24       3.1444456    2.62796  16.4%  89.5    2s
H  249   183                       3.1185761    2.63282  15.6%  70.4    2s
*  346   225              40       3.0978696    2.63328  15.0%  63.9    2s
   541   342    2.78152   21  164    3.09787    2.65745  14.2%  64.0    5s
H  570   335                       3.0123913    2.67266  11.3%  75.6    6s
H  625   324                       3.0123913    2.67271  11.3%  78.8    7s
H  843   279                       2.8706087    2.73137  4.85%  75.8    8s
H  850   258                       2.8653696    2.73137  4.68%  75.2    8s
  1139   143    2.85150   35   62    2.86537    2.79896  2.32%  76.5   10s

Cutting planes:
  Cover: 15
  Implied bound: 6
  Clique: 7
  MIR: 78
  StrongCG: 5
  Flow cover: 142
  Zero half: 4
  RLT: 10
  Relax-and-lift: 113

Explored 1236 nodes (97312 simplex iterations) in 10.40 seconds
Thread count was 1 (of 4 available processors)

Solution count 10: 2.86537 2.87061 3.01239 ... 3.48413

Optimal solution found (tolerance 1.00e-04)
Best objective 2.865369575503e+00, best bound 2.865369575503e+00, gap 0.0000%
